CuO                                    
   1.00000000000000    
    11.6317000000000004    0.0000000000000000    0.0000000000000000
    -3.6617801641422201   12.1119733152569005    0.0000000000000000
     0.0000000000000000    0.0000000000000000   30.4647000000000006
 Cu_B Cu O
 32 80 112
Selective Dynamics 
CuO                                    
   1.00000000000000    
    11.6317000000000004    0.0000000000000000    0.0000000000000000
    -3.6617801641422201   12.1119733152569005    0.0000000000000000
     0.0000000000000000    0.0000000000000000   30.4647000000000006
 Cu_B Cu O
 32 80 112
0.3891492436316472 0.1974142671479518 0.0127562942962037 
0.1391526532253680 0.1974160085951737 0.0127733381029220 
0.6391514137941330 0.1974178661746404 0.0127669291103487 
0.8891553605452086 0.1974223436573536 0.0127891578361282 
0.8857719473474455 0.4395349230805195 0.0181003567576046 
0.1357767891039280 0.4395353500083286 0.0181002427817074 
0.3857812672138503 0.4395474043703129 0.0181020754078508 
0.6357818307482792 0.4395623295597678 0.0181156758703759 
0.1391331031303627 0.6973934752689909 0.0127490215675754 
0.3891442708901746 0.6974142155884070 0.0127557581687117 
0.8891475497994815 0.6974292776288692 0.0127673186179850 
0.6391553345636141 0.6974403640648722 0.0127737222957873 
0.1357776154567148 0.9395415297233640 0.0180964154562130 
0.3857822451410021 0.9395467490735434 0.0180995676098304 
0.6357924690380081 0.9395633358506972 0.0181193832970081 
0.8858078978411040 0.9396069852398429 0.0181691660342355 
0.2304683736397915 0.0727177734763245 0.0929111978793882 
0.4804820606057676 0.0727330159172884 0.0929191803428435 
0.7305002056758674 0.0727598484451487 0.0929450714443967 
0.9805469120434562 0.0728399166280868 0.0930122202063513 
0.4776180266149568 0.3205884210804174 0.0948285955039808 
0.7276165829110910 0.3205913977214586 0.0948433578615592 
0.2276124542236438 0.3205951489924071 0.0948451328674933 
0.9776255591007682 0.3206213974816210 0.0948729185451327 
0.9804648071577470 0.5727072202958250 0.0929108004791316 
0.2304648938569273 0.5727145199138958 0.0929150609202343 
0.4804767862488344 0.5727340100446674 0.0929167865164769 
0.7304881639277438 0.5727472938197953 0.0929311567438059 
0.2276097638591365 0.8205728241394170 0.0948160141126310 
0.4776179138596791 0.8205920457942233 0.0948273604788745 
0.9776187232644140 0.8206023700043821 0.0948442086051633 
0.7276395637764620 0.8206247282165281 0.0948507607080571 
0.3250273487848785 0.1960551411765194 0.1738526089246845 
0.5750614225019143 0.1960775089953547 0.1738780702221691 
0.8250601308732919 0.1961023941186689 0.1739091324059354 
0.0751213418651032 0.1962796418101057 0.1740242741027618 
0.8261965089414381 0.4465042898674975 0.1736011663434034 
0.5762037846076739 0.4465098765647513 0.1735799969450408 
0.3262080075736643 0.4465398488294174 0.1736029809779176 
0.0762203549250912 0.4465734018562381 0.1736587960985918 
0.0750517153170196 0.6960387891651885 0.1738441729088236 
0.3250620118562816 0.6960764384754572 0.1738522014895074 
0.8250909347023644 0.6961107164062199 0.1738816946102708 
0.5750990427096002 0.6961153618205156 0.1738517999905673 
0.3261984217540052 0.9464855880654877 0.1735681767907103 
0.5762098898880276 0.9465212855179459 0.1735875593143383 
0.0762130226077098 0.9465413385014765 0.1736017090931682 
0.8262452280791945 0.9465749284006210 0.1736205379235974 
0.6653380557489371 0.0688081787681340 0.2537076427240475 
0.4153373167532790 0.0688177777617893 0.2536490545644058 
0.9153593191381518 0.0689326042914025 0.2537643663838270 
0.1653665692539631 0.0689621082143485 0.2537011365143479 
0.6666062467879149 0.3186657136165250 0.2534990850898325 
0.9165755281611352 0.3186809298939799 0.2535358905463367 
0.4165783707677361 0.3186978946935409 0.2534420437978521 
0.1667192372997386 0.3191044259814511 0.2537271224686771 
0.9154306273067122 0.5688593615223311 0.2536773908324187 
0.6654550730726460 0.5688869204700776 0.2536529502772301 
0.4155121435254778 0.5690298321634019 0.2536761359556531 
0.1654730712016500 0.5690649347220853 0.2537909574627857 
0.1665047335645078 0.8186820230695528 0.2534409327457275 
0.4165310621116073 0.8186876366683031 0.2534743987680019 
0.6665865740399355 0.8187227175669234 0.2534809183545360 
0.9165594404847933 0.8187469259857850 0.2535076203419951 
0.7636051090029016 0.1914230824975768 0.3335610689344494 
0.5136166216941715 0.1915090633125131 0.3334629958628665 
0.0136501913715792 0.1916888200797156 0.3336186006657963 
0.2636654336126897 0.1918350300841516 0.3335264346061013 
0.7631289140398553 0.4424721116264116 0.3337064440623660 
0.0130758728496351 0.4424815607341374 0.3337394742858278 
0.5131081340337006 0.4424853359038350 0.3336325380430357 
0.2634480257769616 0.4433829753683737 0.3339938183299332 
0.7635631121195731 0.6916533658505349 0.3335487827858911 
0.0135305821841124 0.6916659238671965 0.3335392758922197 
0.5137611524745201 0.6919483959184455 0.3337082115178579 
0.2636035720991089 0.6921197060155236 0.3337946550258644 
0.5123881120428334 0.9422706291897580 0.3337617961203623 
0.7620667132433757 0.9422918565014933 0.3338584929705468 
0.2625161361784223 0.9424899220884040 0.3336837912898639 
0.0124488748700483 0.9427073056866725 0.3337510134880705 
0.8524855444442571 0.0654400462580185 0.4142744687629275 
0.6024499008958643 0.0654430653547079 0.4141000882484321 
0.3523610621261283 0.0657076174624481 0.4141058869480406 
0.1025275688611635 0.0658521298154746 0.4142792406891825 
0.6053595778732876 0.3176502975050343 0.4125298772271277 
0.8554230289999821 0.3177450592205505 0.4126416378091242 
0.3554142140860398 0.3178295264433741 0.4126333312433967 
0.1054891841617660 0.3178780645321974 0.4127313135443750 
0.6031041062328971 0.5651378038727045 0.4142399265981888 
0.1028744537407340 0.5654950377649459 0.4143106069765917 
0.8530547132124865 0.5656070485003227 0.4142714956346332 
0.3535316650945767 0.5659343897607249 0.4146599677200410 
0.6024620475516727 0.8176445596208628 0.4139904161587386 
0.8532357821109103 0.8179994730724959 0.4127527859248658 
0.3538444691236834 0.8180080238202253 0.4134731678729194 
0.1034860859414746 0.8181979046089447 0.4126853088220145 
0.4472617426927276 0.1989361404253621 0.4894165803617020 
0.1971991964339336 0.1989440147099344 0.4895362116926840 
0.9473983629577216 0.1991602306497907 0.4894859554299538 
0.6975717410883584 0.1992303447736529 0.4892908459052996 
0.4449575103580388 0.4398448101780278 0.4950000675648841 
0.6949638895870235 0.4406453985168770 0.4949564901892469 
0.1948049942522679 0.4410824915492469 0.4951798390916999 
0.9449023069116258 0.4412352004951929 0.4950092216239814 
0.4471214037272867 0.6968975107841513 0.4924026586700364 
0.6986555608512158 0.6978809997765150 0.4893161660607548 
0.9471678536797392 0.6990682663956523 0.4895139677832324 
0.1959532829709577 0.6996445576381566 0.4893725760611067 
0.9434504317278776 0.9413924728964409 0.4949345836500768 
0.6939150618256774 0.9413999160012156 0.4940881822897805 
0.1930248802665766 0.9417091451085267 0.4949214299795069 
0.4429574054202856 0.9422861750375411 0.4940596709783719 
0.2290712288019582 0.0904811973517611 0.0271573980393546 
0.4790729444788663 0.0904857938831437 0.0271606006956398 
0.7290866679083673 0.0904975631562737 0.0271928155065663 
0.9791082671519742 0.0905431011519263 0.0272407077245667 
0.7981125727061923 0.2989934833402966 0.0021517256829236 
0.0481141846972698 0.2989936774893320 0.0021549629939782 
0.2981115390196507 0.2990077751889406 0.0021517136300979 
0.5481200885805586 0.2990221317460354 0.0021613096962455 
0.9790495099291172 0.5904648359941889 0.0271562211195969 
0.2290642425049774 0.5904699569537668 0.0271592588937934 
0.4790714004268959 0.5904939450375505 0.0271620783712702 
0.7290726250419874 0.5905090604232173 0.0271736111969265 
0.2981010496161286 0.7989992604035445 0.0021484758331618 
0.0481120089292798 0.7990017166055884 0.0021461310062726 
0.5481158799765621 0.7990286529235776 0.0021597121992646 
0.7981368593742436 0.7990739518674310 0.0021910860493344 
0.3207683226480494 0.2212757031756586 0.1102378843220703 
0.5707590463279835 0.2212902990117590 0.1102610536016633 
0.8207721535368774 0.2213168701219893 0.1102921553091339 
0.0707943410909160 0.2213937154054397 0.1103829338336946 
0.8849954770953056 0.4229019991323950 0.0816781292279469 
0.1349945412515551 0.4229112999053390 0.0816804496273222 
0.3849989826990807 0.4229172880659953 0.0816794899192696 
0.6350127815105078 0.4229267299098214 0.0816958876462808 
0.0707639097743787 0.7212636620176965 0.1102301931520748 
0.3207665910856981 0.7212697703386852 0.1102360480034243 
0.5707807479339181 0.7212934204477320 0.1102437530992167 
0.8207691021826249 0.7213035101831123 0.1102716745349115 
0.1349956397997003 0.9229128615999878 0.0816738125100760 
0.3849963687834185 0.9229181271366851 0.0816777040799137 
0.6350134543904513 0.9229426540061455 0.0817005110597065 
0.8850492155442529 0.9230025793351788 0.0817497986543872 
0.2333813916892293 0.0461224007540512 0.1569677650669110 
0.4833835348792825 0.0461372077938697 0.1569774733176484 
0.7334029897233701 0.0461737154211328 0.1569986960368250 
0.9834486409738874 0.0462803349409528 0.1570747101968608 
0.4192890758664882 0.3464520204375963 0.1902168524265580 
0.6693018085554511 0.3464711819338551 0.1902627368707387 
0.9193203136641955 0.3464935961500639 0.1902994156170043 
0.1694130533492008 0.3467101375088550 0.1904660176515648 
0.9833731669791356 0.5461050984748115 0.1569694773862821 
0.2333823698791895 0.5461386146154348 0.1569791208125213 
0.4833849007097468 0.5461464371144353 0.1569727549312299 
0.7334001494620523 0.5461503583828908 0.1569878591664635 
0.1692903117026312 0.8464230646006144 0.1902055900814791 
0.4193128913931483 0.8464410224021409 0.1902246823169002 
0.9193320554191929 0.8465082143455290 0.1902686045258895 
0.6693575828314888 0.8465225778831936 0.1902464949195464 
0.5720936765966598 0.1685495702159236 0.2370461977259616 
0.8220620787882364 0.1685816302349271 0.2370823746341772 
0.3220880703524969 0.1685838708145352 0.2370191497050532 
0.0721509322335151 0.1688850548845742 0.2372101939498794 
0.7583383470513275 0.4695413011671958 0.2705125842053198 
0.0083693885108312 0.4695563291729373 0.2705509631637579 
0.5083107732809181 0.4696057832681050 0.2704641861543325 
0.2585876327372886 0.4701163896181630 0.2708691502904602 
0.0721188863680544 0.6685431634315140 0.2370122531589288 
0.8221680978872814 0.6685956395895257 0.2370440804290056 
0.5721880293355391 0.6686085476485533 0.2370014781459309 
0.3221337920749496 0.6686304196196380 0.2370256129217496 
0.5081999820287531 0.9694664353066529 0.2705059470949647 
0.2582076452942039 0.9695043196336115 0.2704575212109133 
0.7582505737827281 0.9695355355734074 0.2705892147952647 
0.0082942106051706 0.9696124574539076 0.2705221421635683 
0.6067024147596214 0.0915787573108574 0.3500655466514643 
0.8567685636274580 0.0915898537192262 0.3501921809523539 
0.3567358139472707 0.0918636976048738 0.3500108422899298 
0.1068952412229318 0.0920440133240220 0.3501278056198359 
0.6709440117733179 0.2912470106603278 0.3167902828861181 
0.9208572409646720 0.2912671941977503 0.3168384385181710 
0.4209670807007669 0.2913465961256848 0.3167104475162688 
0.1710485202352568 0.2918984702457059 0.3170140773934106 
0.8568307429343875 0.5919378410882468 0.3501318927183412 
0.6067777798306826 0.5919534879385735 0.3501456886933470 
0.1068573553962353 0.5919562236744675 0.3501646680004816 
0.3572854612591307 0.5932396606508300 0.3510388451051160 
0.6707060023197455 0.7912393388939416 0.3167448314234309 
0.4207616749466147 0.7912974117395049 0.3167860057780232 
0.1706778275730571 0.7913359198744673 0.3167288174989176 
0.9207300105061497 0.7914053129021300 0.3167984514573091 
0.9479087469096341 0.2157947639414377 0.4260199520288212 
0.6979043327195797 0.2158138828897730 0.4258006131535685 
0.4478872750279547 0.2158872848217879 0.4259296846745518 
0.1979612637793295 0.2160683619964650 0.4260806018042170 
0.5118806384958469 0.4166497750041799 0.3970946954593086 
0.0119562247950304 0.4168180038873657 0.3972490954438180 
0.7619785644562548 0.4168645806806826 0.3972091676281295 
0.2621442652987898 0.4173154064108417 0.3973311396211678 
0.6959880074457940 0.7158019692734091 0.4261517356558381 
0.1959330790135614 0.7161789436546332 0.4260368332420112 
0.4452314809245819 0.7163168504409232 0.4296607146278899 
0.9461989308167980 0.7163779216065886 0.4260503180182749 
0.5097171188910659 0.9165442775310966 0.3973022414989222 
0.7592504369774058 0.9167897867326844 0.3974311905516690 
0.2603579052232622 0.9169750367707821 0.3972170237005804 
0.0100319257038414 0.9174051588022863 0.3972995718531923 
0.8536626131135030 0.0482582040120825 0.4803641179519808 
0.1032448394504641 0.0483841298514100 0.4803695727837894 
0.3530660290754849 0.0486445308430836 0.4801499640244701 
0.6039800247905867 0.0486485756591772 0.4800490277162013 
0.2855661948511362 0.3389635635551095 0.5058500385414240 
0.7861495098294800 0.3392820397498026 0.5055981978740073 
0.0358341803484627 0.3395025023005853 0.5056254724133931 
0.3554753041046891 0.5456935680700113 0.4795583303534223 
0.6052196557646137 0.5468535706412447 0.4801553847812978 
0.8548893830321046 0.5479363201675506 0.4803663411550702 
0.1048542625909439 0.5480449621478478 0.4804677615213812 
0.7844146879605952 0.8394179832563958 0.5050670765094323 
0.0342392785054579 0.8398049030018079 0.5056257220203285 
0.2839378615930195 0.8403138031340478 0.5052138873961628 
0.5348295702273166 0.8423713271915056 0.5040966035246296 
