Cu4 O4
1.0
4.305837 0.000000 -0.312415
0.000000 3.961409 0.000000
0.000000 0.000000 5.148488
Cu O
4 4
direct
0.250000 0.750000 0.500000 Cu
0.250000 0.250000 0.000000 Cu
0.750000 0.250000 0.500000 Cu
0.750000 0.750000 0.000000 Cu
0.500000 0.982000 0.250000 O
0.500000 0.018000 0.750000 O
0.000000 0.482000 0.250000 O
0.000000 0.518000 0.750000 O